p wcnf 122 61 62 
1 10 -62 0 
1 -70 87 0 
1 -85 -13 0 
1 59 111 0 
1 -22 -32 0 
1 -107 121 0 
1 82 -69 0 
1 66 114 0 
1 -120 -83 0 
1 92 -45 0 
1 -16 96 0 
1 35 -46 0 
1 -55 -110 0 
1 -5 11 0 
1 -11 14 0 
1 -41 119 0 
1 -34 91 0 
1 18 44 0 
1 -37 52 0 
1 -86 -70 0 
1 7 71 0 
1 8 -79 0 
1 54 10 0 
1 -104 15 0 
1 46 -37 0 
1 61 -1 0 
1 26 -17 0 
1 -21 -93 0 
1 -101 -35 0 
1 -94 24 0 
1 81 6 0 
1 80 111 0 
1 77 38 0 
1 67 -19 0 
1 89 2 0 
1 56 35 0 
1 122 -29 0 
1 42 -35 0 
1 58 7 0 
1 55 89 0 
1 -77 -34 0 
1 -88 104 0 
1 111 -33 0 
1 -68 12 0 
1 -67 -62 0 
1 86 -117 0 
1 -16 23 0 
1 -97 23 0 
1 75 -15 0 
1 -109 -81 0 
1 24 -66 0 
1 56 -95 0 
1 -24 -5 0 
1 -46 69 0 
1 81 41 0 
1 -47 -97 0 
1 115 -103 0 
1 -84 -100 0 
1 -120 104 0 
1 -62 -56 0 
1 -39 -57 0 
